NAME : cvrp-A-G-200-8.814.tour
COMMENT : Length = 814
COMMENT : Found by LKH [Keld Helsgaun] Thu May 17 22:42:36 2018
TYPE : TOUR
DIMENSION : 31
TOUR_SECTION
1
24
14
12
9
5
6
2
21
31
7
11
8
4
30
25
17
3
16
15
13
10
29
23
19
28
18
22
27
26
20
-1
EOF
